Maximize
 0
Subject To
 epc_0!1: +26.523977487874248 y_1!1_2!1 +92.47136150268145 y_1!2_2!1 +94.84467091453698 y_1!3_2!1 -26.28880985122599 y_1!4_2!1 -95.92551946880539 y_1!5_2!1 +6.942198587226997 y_1!6_2!1 +2.248253488883506 y_1!1_2!2 -55.86688937367885 y_1!2_2!2 -23.22312551540257 y_1!3_2!2 -67.33130513175433 y_1!4_2!2 +70.54785577457758 y_1!5_2!2 -11.444668206061337 y_1!6_2!2 +36.30352802558326 y_1!1_2!3 -59.854001304702024 y_1!2_2!3 -82.9284689737909 y_1!3_2!3 -81.85233772566029 y_1!4_2!3 +61.711333303349846 y_1!5_2!3 -95.4119622962774 y_1!6_2!3 -12.820519054504345 y_1!1_2!4 +71.58282007990613 y_1!2_2!4 +82.90553115137433 y_1!3_2!4 +40.15849465375294 y_1!4_2!4 +17.709524449612672 y_1!5_2!4 -29.95009942965264 y_1!6_2!4 +55.98092165390571 y_1!1_2!5 -46.694170712146764 y_1!2_2!5 -82.62184641319962 y_1!3_2!5 -72.3000328546763 y_1!4_2!5 -76.90323301818272 y_1!5_2!5 +50.3585191975387 y_1!6_2!5 -38.20662638136562 y_1!1_2!6 -22.319969576972753 y_1!2_2!6 +79.54165839554167 y_1!3_2!6 -15.463187354708282 y_1!4_2!6 +50.73563232176565 y_1!5_2!6 -76.0883623027117 y_1!6_2!6 + lambda_0!1 - mu_0 = 0
 epc_0!2: -70.01031129822522 y_1!1_2!1 -72.94945607121295 y_1!2_2!1 -68.56420201715656 y_1!3_2!1 -18.184233841391872 y_1!4_2!1 -26.570366169638746 y_1!5_2!1 +58.7511575898435 y_1!6_2!1 +93.65707044161749 y_1!1_2!2 -70.73789534920982 y_1!2_2!2 +92.31295809369925 y_1!3_2!2 -37.22784929653751 y_1!4_2!2 +6.32331911244583 y_1!5_2!2 +52.968235667063055 y_1!6_2!2 +22.264808358528995 y_1!1_2!3 +13.300450266073824 y_1!2_2!3 +26.058809758073735 y_1!3_2!3 -76.10433233010794 y_1!4_2!3 +38.49411864749749 y_1!5_2!3 +53.646122847336954 y_1!6_2!3 +67.85871717601319 y_1!1_2!4 +54.085403194385094 y_1!2_2!4 +24.43776718078759 y_1!3_2!4 -74.23396634291169 y_1!4_2!4 +86.36140724234716 y_1!5_2!4 -6.79570442219979 y_1!6_2!4 +82.2626086495828 y_1!1_2!5 -8.940516629377598 y_1!2_2!5 +63.431813443034 y_1!3_2!5 -37.933490336073625 y_1!4_2!5 +76.63171015036937 y_1!5_2!5 -3.657951490439544 y_1!6_2!5 +18.462057880310056 y_1!1_2!6 -97.96366350602031 y_1!2_2!6 -46.85904693886877 y_1!3_2!6 +88.90392344619377 y_1!4_2!6 +7.795631399617747 y_1!5_2!6 +69.21859783955264 y_1!6_2!6 + lambda_0!2 - mu_0 = 0
 epc_0!3: -63.8719850435876 y_1!1_2!1 +59.08230718162625 y_1!2_2!1 -65.99726217465356 y_1!3_2!1 -36.33099468256036 y_1!4_2!1 +20.70150274161881 y_1!5_2!1 +93.57325222109878 y_1!6_2!1 +7.2241360590270745 y_1!1_2!2 -68.70971006959128 y_1!2_2!2 -96.07480823493641 y_1!3_2!2 -21.919411239067642 y_1!4_2!2 +17.474595660094565 y_1!5_2!2 -75.5354388806 y_1!6_2!2 +30.453170699786256 y_1!1_2!3 -4.298527496269131 y_1!2_2!3 -10.458621824916236 y_1!3_2!3 +9.636525474662605 y_1!4_2!3 -28.576477034803986 y_1!5_2!3 +93.08928389835586 y_1!6_2!3 +19.943861169859957 y_1!1_2!4 +92.9954990886763 y_1!2_2!4 -46.285024414384914 y_1!3_2!4 +89.80365823371716 y_1!4_2!4 +30.29298219848306 y_1!5_2!4 +73.16647745730688 y_1!6_2!4 +21.19813420609313 y_1!1_2!5 -26.24331777242861 y_1!2_2!5 +1.4733808500809573 y_1!3_2!5 +60.07553902413662 y_1!4_2!5 +88.13765197287137 y_1!5_2!5 +5.411533478399292 y_1!6_2!5 +73.80457801294378 y_1!1_2!6 -92.3542004960748 y_1!2_2!6 -5.098536826018844 y_1!3_2!6 +3.389833933025656 y_1!4_2!6 -51.66260187034133 y_1!5_2!6 -42.01979956867745 y_1!6_2!6 + lambda_0!3 - mu_0 = 0
 epc_0!4: +38.64330001961201 y_1!1_2!1 -59.39664972814389 y_1!2_2!1 -97.2368736965439 y_1!3_2!1 +45.38055879050387 y_1!4_2!1 +23.297558488338723 y_1!5_2!1 +65.56025358645593 y_1!6_2!1 -96.52602367205535 y_1!1_2!2 -3.118523780126452 y_1!2_2!2 +65.2704033769964 y_1!3_2!2 -95.36345631951019 y_1!4_2!2 -19.921688808318237 y_1!5_2!2 +75.72794427353827 y_1!6_2!2 -53.68834957365378 y_1!1_2!3 -72.52328637971637 y_1!2_2!3 +44.754218542816716 y_1!3_2!3 -76.00600519684397 y_1!4_2!3 +0.2891997521801528 y_1!5_2!3 +89.40413552200474 y_1!6_2!3 +7.756288303700217 y_1!1_2!4 +76.93424061112873 y_1!2_2!4 -59.96676867817943 y_1!3_2!4 -46.1384136430214 y_1!4_2!4 +48.040349104706706 y_1!5_2!4 +94.53695217233454 y_1!6_2!4 +85.21804289239861 y_1!1_2!5 +37.17844028135542 y_1!2_2!5 -56.87108229671405 y_1!3_2!5 +54.85691396510231 y_1!4_2!5 -29.812304514065758 y_1!5_2!5 -82.92923125266367 y_1!6_2!5 -37.87636885607635 y_1!1_2!6 +75.53431694232725 y_1!2_2!6 -39.36822770778618 y_1!3_2!6 +96.28059337845838 y_1!4_2!6 +75.77089043649809 y_1!5_2!6 -20.094031739456582 y_1!6_2!6 + lambda_0!4 - mu_0 = 0
 epc_0!5: -95.98589137928049 y_1!1_2!1 +43.402651189456634 y_1!2_2!1 +11.446919631925567 y_1!3_2!1 +66.44648790042314 y_1!4_2!1 +70.7317224856449 y_1!5_2!1 +66.55147426800798 y_1!6_2!1 +20.862687581713814 y_1!1_2!2 +64.3510055791408 y_1!2_2!2 -38.65055617239381 y_1!3_2!2 -58.85679332363449 y_1!4_2!2 +96.86666967748107 y_1!5_2!2 +80.85239383087176 y_1!6_2!2 +75.54629350360193 y_1!1_2!3 +43.246066176219244 y_1!2_2!3 -82.1333489120944 y_1!3_2!3 +25.225052389226306 y_1!4_2!3 +48.13202302741436 y_1!5_2!3 +97.66853421860247 y_1!6_2!3 -63.17499997265632 y_1!1_2!4 +17.229602791545545 y_1!2_2!4 -60.34676349915997 y_1!3_2!4 +5.6413128155009105 y_1!4_2!4 +77.90115590896642 y_1!5_2!4 +63.50695400413599 y_1!6_2!4 -55.26368778189506 y_1!1_2!5 -58.787397297504086 y_1!2_2!5 +43.4090658790613 y_1!3_2!5 +26.513891783830616 y_1!4_2!5 +65.82342005557342 y_1!5_2!5 -73.48695024523676 y_1!6_2!5 -96.25419338750815 y_1!1_2!6 +21.156419901438113 y_1!2_2!6 -50.04219068560438 y_1!3_2!6 -53.95345952919861 y_1!4_2!6 +92.94767071761791 y_1!5_2!6 +24.27711190002111 y_1!6_2!6 + lambda_0!5 - mu_0 = 0
 epc_0!6: -33.821698463924605 y_1!1_2!1 -99.3591263611436 y_1!2_2!1 +50.60345197253284 y_1!3_2!1 -33.327299653469765 y_1!4_2!1 +75.6057647714058 y_1!5_2!1 -19.60139324698919 y_1!6_2!1 +24.94206237071812 y_1!1_2!2 +89.00854898112757 y_1!2_2!2 -23.471374578056896 y_1!3_2!2 -95.06767910470573 y_1!4_2!2 -0.13274622113306123 y_1!5_2!2 -7.409704228581177 y_1!6_2!2 -57.88636929576094 y_1!1_2!3 +36.7460375025959 y_1!2_2!3 -63.39240007554439 y_1!3_2!3 +7.237493363685672 y_1!4_2!3 +62.4114699234315 y_1!5_2!3 +20.214782137038583 y_1!6_2!3 +9.379024325505526 y_1!1_2!4 -87.38548832789755 y_1!2_2!4 +60.504603958563905 y_1!3_2!4 -5.548260272452723 y_1!4_2!4 -8.222047585058306 y_1!5_2!4 +22.612573658265788 y_1!6_2!4 +9.497349886646347 y_1!1_2!5 -49.81823373406304 y_1!2_2!5 -4.030110555680523 y_1!3_2!5 +46.94129967255151 y_1!4_2!5 -83.2455063323658 y_1!5_2!5 -40.47248036485098 y_1!6_2!5 +56.07967063953521 y_1!1_2!6 -16.16404811811701 y_1!2_2!6 -8.205277561046387 y_1!3_2!6 +57.61439550628461 y_1!4_2!6 +97.18958612271061 y_1!5_2!6 -52.2133425197121 y_1!6_2!6 + lambda_0!6 - mu_0 = 0
 dc_0: x_0!1 + x_0!2 + x_0!3 + x_0!4 + x_0!5 + x_0!6 = 1
 bc_0!1: lambda_0!1 +299.4878125627913 x_0!1 <= 299.4878125627913
 bc_0!2: lambda_0!2 +299.4878125627913 x_0!2 <= 299.4878125627913
 bc_0!3: lambda_0!3 +299.4878125627913 x_0!3 <= 299.4878125627913
 bc_0!4: lambda_0!4 +299.4878125627913 x_0!4 <= 299.4878125627913
 bc_0!5: lambda_0!5 +299.4878125627913 x_0!5 <= 299.4878125627913
 bc_0!6: lambda_0!6 +299.4878125627913 x_0!6 <= 299.4878125627913
 sum_0!1: y_1!1_2!1 - x_1!1 - x_2!1 >= -1
 idk_0!1!1: y_1!1_2!1 - x_1!1 <= 0
 idk_0!1!2: y_1!1_2!1 - x_2!1 <= 0
 sum_0!2: y_1!2_2!1 - x_1!2 - x_2!1 >= -1
 idk_0!2!1: y_1!2_2!1 - x_1!2 <= 0
 idk_0!2!2: y_1!2_2!1 - x_2!1 <= 0
 sum_0!3: y_1!3_2!1 - x_1!3 - x_2!1 >= -1
 idk_0!3!1: y_1!3_2!1 - x_1!3 <= 0
 idk_0!3!2: y_1!3_2!1 - x_2!1 <= 0
 sum_0!4: y_1!4_2!1 - x_1!4 - x_2!1 >= -1
 idk_0!4!1: y_1!4_2!1 - x_1!4 <= 0
 idk_0!4!2: y_1!4_2!1 - x_2!1 <= 0
 sum_0!5: y_1!5_2!1 - x_1!5 - x_2!1 >= -1
 idk_0!5!1: y_1!5_2!1 - x_1!5 <= 0
 idk_0!5!2: y_1!5_2!1 - x_2!1 <= 0
 sum_0!6: y_1!6_2!1 - x_1!6 - x_2!1 >= -1
 idk_0!6!1: y_1!6_2!1 - x_1!6 <= 0
 idk_0!6!2: y_1!6_2!1 - x_2!1 <= 0
 sum_0!7: y_1!1_2!2 - x_1!1 - x_2!2 >= -1
 idk_0!7!1: y_1!1_2!2 - x_1!1 <= 0
 idk_0!7!2: y_1!1_2!2 - x_2!2 <= 0
 sum_0!8: y_1!2_2!2 - x_1!2 - x_2!2 >= -1
 idk_0!8!1: y_1!2_2!2 - x_1!2 <= 0
 idk_0!8!2: y_1!2_2!2 - x_2!2 <= 0
 sum_0!9: y_1!3_2!2 - x_1!3 - x_2!2 >= -1
 idk_0!9!1: y_1!3_2!2 - x_1!3 <= 0
 idk_0!9!2: y_1!3_2!2 - x_2!2 <= 0
 sum_0!10: y_1!4_2!2 - x_1!4 - x_2!2 >= -1
 idk_0!10!1: y_1!4_2!2 - x_1!4 <= 0
 idk_0!10!2: y_1!4_2!2 - x_2!2 <= 0
 sum_0!11: y_1!5_2!2 - x_1!5 - x_2!2 >= -1
 idk_0!11!1: y_1!5_2!2 - x_1!5 <= 0
 idk_0!11!2: y_1!5_2!2 - x_2!2 <= 0
 sum_0!12: y_1!6_2!2 - x_1!6 - x_2!2 >= -1
 idk_0!12!1: y_1!6_2!2 - x_1!6 <= 0
 idk_0!12!2: y_1!6_2!2 - x_2!2 <= 0
 sum_0!13: y_1!1_2!3 - x_1!1 - x_2!3 >= -1
 idk_0!13!1: y_1!1_2!3 - x_1!1 <= 0
 idk_0!13!2: y_1!1_2!3 - x_2!3 <= 0
 sum_0!14: y_1!2_2!3 - x_1!2 - x_2!3 >= -1
 idk_0!14!1: y_1!2_2!3 - x_1!2 <= 0
 idk_0!14!2: y_1!2_2!3 - x_2!3 <= 0
 sum_0!15: y_1!3_2!3 - x_1!3 - x_2!3 >= -1
 idk_0!15!1: y_1!3_2!3 - x_1!3 <= 0
 idk_0!15!2: y_1!3_2!3 - x_2!3 <= 0
 sum_0!16: y_1!4_2!3 - x_1!4 - x_2!3 >= -1
 idk_0!16!1: y_1!4_2!3 - x_1!4 <= 0
 idk_0!16!2: y_1!4_2!3 - x_2!3 <= 0
 sum_0!17: y_1!5_2!3 - x_1!5 - x_2!3 >= -1
 idk_0!17!1: y_1!5_2!3 - x_1!5 <= 0
 idk_0!17!2: y_1!5_2!3 - x_2!3 <= 0
 sum_0!18: y_1!6_2!3 - x_1!6 - x_2!3 >= -1
 idk_0!18!1: y_1!6_2!3 - x_1!6 <= 0
 idk_0!18!2: y_1!6_2!3 - x_2!3 <= 0
 sum_0!19: y_1!1_2!4 - x_1!1 - x_2!4 >= -1
 idk_0!19!1: y_1!1_2!4 - x_1!1 <= 0
 idk_0!19!2: y_1!1_2!4 - x_2!4 <= 0
 sum_0!20: y_1!2_2!4 - x_1!2 - x_2!4 >= -1
 idk_0!20!1: y_1!2_2!4 - x_1!2 <= 0
 idk_0!20!2: y_1!2_2!4 - x_2!4 <= 0
 sum_0!21: y_1!3_2!4 - x_1!3 - x_2!4 >= -1
 idk_0!21!1: y_1!3_2!4 - x_1!3 <= 0
 idk_0!21!2: y_1!3_2!4 - x_2!4 <= 0
 sum_0!22: y_1!4_2!4 - x_1!4 - x_2!4 >= -1
 idk_0!22!1: y_1!4_2!4 - x_1!4 <= 0
 idk_0!22!2: y_1!4_2!4 - x_2!4 <= 0
 sum_0!23: y_1!5_2!4 - x_1!5 - x_2!4 >= -1
 idk_0!23!1: y_1!5_2!4 - x_1!5 <= 0
 idk_0!23!2: y_1!5_2!4 - x_2!4 <= 0
 sum_0!24: y_1!6_2!4 - x_1!6 - x_2!4 >= -1
 idk_0!24!1: y_1!6_2!4 - x_1!6 <= 0
 idk_0!24!2: y_1!6_2!4 - x_2!4 <= 0
 sum_0!25: y_1!1_2!5 - x_1!1 - x_2!5 >= -1
 idk_0!25!1: y_1!1_2!5 - x_1!1 <= 0
 idk_0!25!2: y_1!1_2!5 - x_2!5 <= 0
 sum_0!26: y_1!2_2!5 - x_1!2 - x_2!5 >= -1
 idk_0!26!1: y_1!2_2!5 - x_1!2 <= 0
 idk_0!26!2: y_1!2_2!5 - x_2!5 <= 0
 sum_0!27: y_1!3_2!5 - x_1!3 - x_2!5 >= -1
 idk_0!27!1: y_1!3_2!5 - x_1!3 <= 0
 idk_0!27!2: y_1!3_2!5 - x_2!5 <= 0
 sum_0!28: y_1!4_2!5 - x_1!4 - x_2!5 >= -1
 idk_0!28!1: y_1!4_2!5 - x_1!4 <= 0
 idk_0!28!2: y_1!4_2!5 - x_2!5 <= 0
 sum_0!29: y_1!5_2!5 - x_1!5 - x_2!5 >= -1
 idk_0!29!1: y_1!5_2!5 - x_1!5 <= 0
 idk_0!29!2: y_1!5_2!5 - x_2!5 <= 0
 sum_0!30: y_1!6_2!5 - x_1!6 - x_2!5 >= -1
 idk_0!30!1: y_1!6_2!5 - x_1!6 <= 0
 idk_0!30!2: y_1!6_2!5 - x_2!5 <= 0
 sum_0!31: y_1!1_2!6 - x_1!1 - x_2!6 >= -1
 idk_0!31!1: y_1!1_2!6 - x_1!1 <= 0
 idk_0!31!2: y_1!1_2!6 - x_2!6 <= 0
 sum_0!32: y_1!2_2!6 - x_1!2 - x_2!6 >= -1
 idk_0!32!1: y_1!2_2!6 - x_1!2 <= 0
 idk_0!32!2: y_1!2_2!6 - x_2!6 <= 0
 sum_0!33: y_1!3_2!6 - x_1!3 - x_2!6 >= -1
 idk_0!33!1: y_1!3_2!6 - x_1!3 <= 0
 idk_0!33!2: y_1!3_2!6 - x_2!6 <= 0
 sum_0!34: y_1!4_2!6 - x_1!4 - x_2!6 >= -1
 idk_0!34!1: y_1!4_2!6 - x_1!4 <= 0
 idk_0!34!2: y_1!4_2!6 - x_2!6 <= 0
 sum_0!35: y_1!5_2!6 - x_1!5 - x_2!6 >= -1
 idk_0!35!1: y_1!5_2!6 - x_1!5 <= 0
 idk_0!35!2: y_1!5_2!6 - x_2!6 <= 0
 sum_0!36: y_1!6_2!6 - x_1!6 - x_2!6 >= -1
 idk_0!36!1: y_1!6_2!6 - x_1!6 <= 0
 idk_0!36!2: y_1!6_2!6 - x_2!6 <= 0
 epc_1!1: -99.75457485417729 y_0!1_2!1 -22.590162002219756 y_0!2_2!1 -84.55922016996105 y_0!3_2!1 -91.30886611656352 y_0!4_2!1 -15.918723719940147 y_0!5_2!1 +82.34776629167166 y_0!6_2!1 -43.271330361954206 y_0!1_2!2 +87.8881437186354 y_0!2_2!2 -93.2106415915435 y_0!3_2!2 -58.70182806453157 y_0!4_2!2 -77.89766637830769 y_0!5_2!2 -57.37001538091191 y_0!6_2!2 -89.67298677791075 y_0!1_2!3 +82.95597755042343 y_0!2_2!3 +67.39436171226566 y_0!3_2!3 +63.44199287742984 y_0!4_2!3 -38.490766350381755 y_0!5_2!3 -78.98921532626784 y_0!6_2!3 +68.81975374995051 y_0!1_2!4 -39.7081366853258 y_0!2_2!4 -93.64089817341214 y_0!3_2!4 -93.08754628042817 y_0!4_2!4 -57.20187042586309 y_0!5_2!4 +21.52698951385308 y_0!6_2!4 -81.71596717641232 y_0!1_2!5 +63.023117198959 y_0!2_2!5 +82.5655187354698 y_0!3_2!5 +21.01308551428309 y_0!4_2!5 -67.72306055889214 y_0!5_2!5 +57.58788788589692 y_0!6_2!5 -65.12090609854971 y_0!1_2!6 -70.01248406950972 y_0!2_2!6 +98.58249271345883 y_0!3_2!6 +70.02471796063588 y_0!4_2!6 +31.06733136149097 y_0!5_2!6 +25.22819439781962 y_0!6_2!6 + lambda_1!1 - mu_1 = 0
 epc_1!2: +89.40790599652121 y_0!1_2!1 +47.002935810969205 y_0!2_2!1 +0.30197020055868506 y_0!3_2!1 +25.627662164807504 y_0!4_2!1 -50.183084648570244 y_0!5_2!1 -10.173021642594676 y_0!6_2!1 -41.48006251587655 y_0!1_2!2 +34.49375421609818 y_0!2_2!2 +35.85705524066083 y_0!3_2!2 +48.47847548878394 y_0!4_2!2 -18.586298839153528 y_0!5_2!2 -60.05481907900325 y_0!6_2!2 +84.29143520338047 y_0!1_2!3 +35.36399540564378 y_0!2_2!3 -19.749002638396163 y_0!3_2!3 -1.1971598016458813 y_0!4_2!3 +49.17481425407294 y_0!5_2!3 -50.66359572856347 y_0!6_2!3 +75.08927171564804 y_0!1_2!4 -59.687373836075096 y_0!2_2!4 +64.24418769196777 y_0!3_2!4 -21.95143944060338 y_0!4_2!4 -58.82793667339949 y_0!5_2!4 -45.15130597034771 y_0!6_2!4 +40.946503501098846 y_0!1_2!5 +73.86820414279802 y_0!2_2!5 +48.49560145529003 y_0!3_2!5 -84.66024341157647 y_0!4_2!5 -34.364966062581345 y_0!5_2!5 -53.6120592250084 y_0!6_2!5 -98.0782837484927 y_0!1_2!6 -37.03903315022919 y_0!2_2!6 -71.053638915715 y_0!3_2!6 +7.074519825637694 y_0!4_2!6 +7.788568168753656 y_0!5_2!6 +5.908721480310035 y_0!6_2!6 + lambda_1!2 - mu_1 = 0
 epc_1!3: +15.078523482501978 y_0!1_2!1 +25.43322612838577 y_0!2_2!1 -85.65961580292088 y_0!3_2!1 -53.62269436180422 y_0!4_2!1 -49.96501372098396 y_0!5_2!1 +61.49952200206644 y_0!6_2!1 -96.76739371723934 y_0!1_2!2 -93.22909744703276 y_0!2_2!2 -6.469880164490974 y_0!3_2!2 -65.41900780199366 y_0!4_2!2 +45.29862924174307 y_0!5_2!2 +22.150190368934688 y_0!6_2!2 +83.63233383936586 y_0!1_2!3 +97.5138508055519 y_0!2_2!3 -63.98417227640958 y_0!3_2!3 -90.19837323078134 y_0!4_2!3 -90.74602422974229 y_0!5_2!3 -47.67195395986277 y_0!6_2!3 -10.684613954109949 y_0!1_2!4 +28.57941717972028 y_0!2_2!4 +47.114964482833074 y_0!3_2!4 -66.40345903013154 y_0!4_2!4 -87.12193142015127 y_0!5_2!4 +38.70100835289148 y_0!6_2!4 -17.065848793950877 y_0!1_2!5 -4.649399885490581 y_0!2_2!5 +26.16183559420766 y_0!3_2!5 +58.87750004826691 y_0!4_2!5 -23.483951342305502 y_0!5_2!5 +54.32168233030913 y_0!6_2!5 +0.8487550350567261 y_0!1_2!6 +4.8231302294653915 y_0!2_2!6 -79.1106424157075 y_0!3_2!6 +33.35715366437378 y_0!4_2!6 -68.07439899403633 y_0!5_2!6 -3.8696486488389894 y_0!6_2!6 + lambda_1!3 - mu_1 = 0
 epc_1!4: -80.61104513364386 y_0!1_2!1 +63.92494549740252 y_0!2_2!1 -39.01108696268991 y_0!3_2!1 -26.033543370681997 y_0!4_2!1 +52.88057199381012 y_0!5_2!1 -99.79235621725726 y_0!6_2!1 -36.35790907116241 y_0!1_2!2 -85.22840114607749 y_0!2_2!2 +86.13721103145875 y_0!3_2!2 -16.660790877221558 y_0!4_2!2 +83.45008911877392 y_0!5_2!2 +2.390185249344839 y_0!6_2!2 -95.10801485840743 y_0!1_2!3 -64.00230279277564 y_0!2_2!3 -96.46827321961207 y_0!3_2!3 +3.9395682457202668 y_0!4_2!3 +29.460256807889294 y_0!5_2!3 -71.52916309268068 y_0!6_2!3 -74.67407247355055 y_0!1_2!4 -33.638649163591765 y_0!2_2!4 -59.37763715781659 y_0!3_2!4 -78.36739753574955 y_0!4_2!4 +8.574062138432055 y_0!5_2!4 +20.043975750131366 y_0!6_2!4 -98.63539685814615 y_0!1_2!5 +33.91013233360255 y_0!2_2!5 -32.47266918773258 y_0!3_2!5 -21.34979900706817 y_0!4_2!5 +56.228423957877766 y_0!5_2!5 -75.69901199888771 y_0!6_2!5 -86.55667105224781 y_0!1_2!6 -43.60346631103034 y_0!2_2!6 -13.065036280582106 y_0!3_2!6 +69.6079137923953 y_0!4_2!6 +51.20923621955322 y_0!5_2!6 -93.84526985341921 y_0!6_2!6 + lambda_1!4 - mu_1 = 0
 epc_1!5: -6.477722995654474 y_0!1_2!1 -87.69048598135535 y_0!2_2!1 +21.2346170376549 y_0!3_2!1 +62.90594963036153 y_0!4_2!1 -77.39665992743427 y_0!5_2!1 +21.30452049858023 y_0!6_2!1 -95.50370198522671 y_0!1_2!2 +18.009662267620442 y_0!2_2!2 -56.600096573103656 y_0!3_2!2 +69.78932012585011 y_0!4_2!2 +44.04851408394171 y_0!5_2!2 -99.69611557939255 y_0!6_2!2 -80.67139873328968 y_0!1_2!3 +47.5858154042042 y_0!2_2!3 -98.48582235239401 y_0!3_2!3 -22.357767982659496 y_0!4_2!3 +47.723411860684365 y_0!5_2!3 +43.51668448056816 y_0!6_2!3 +66.35837957639137 y_0!1_2!4 -16.86797640552591 y_0!2_2!4 +88.86590610380992 y_0!3_2!4 -10.761012339405184 y_0!4_2!4 -46.29361753760668 y_0!5_2!4 +73.52924753429542 y_0!6_2!4 +9.80120595579217 y_0!1_2!5 -65.87321009895828 y_0!2_2!5 -69.92484874758594 y_0!3_2!5 +18.2791477083466 y_0!4_2!5 -45.969253057834614 y_0!5_2!5 -50.8730290746807 y_0!6_2!5 -98.1717054709699 y_0!1_2!6 +89.22326332615978 y_0!2_2!6 -20.854235029232115 y_0!3_2!6 +53.937592467379375 y_0!4_2!6 +79.42566675223156 y_0!5_2!6 -57.03103428840626 y_0!6_2!6 + lambda_1!5 - mu_1 = 0
 epc_1!6: +79.39344067622625 y_0!1_2!1 -47.93170870105323 y_0!2_2!1 -37.4184968287405 y_0!3_2!1 +97.27230300419487 y_0!4_2!1 -71.34970169846049 y_0!5_2!1 +9.531585595663316 y_0!6_2!1 +99.69545634553401 y_0!1_2!2 -91.94753386099146 y_0!2_2!2 -50.758558927696676 y_0!3_2!2 -20.392981855685363 y_0!4_2!2 +89.82486402402435 y_0!5_2!2 -25.20642123448556 y_0!6_2!2 -97.24469614912185 y_0!1_2!3 +21.014649233270504 y_0!2_2!3 +75.3158303567696 y_0!3_2!3 +86.59866700624679 y_0!4_2!3 -2.6137398601360644 y_0!5_2!3 +11.268683301224485 y_0!6_2!3 +61.15694371509076 y_0!1_2!4 +9.62662998857948 y_0!2_2!4 +81.74510619382067 y_0!3_2!4 -32.55655387179348 y_0!4_2!4 +45.54459860845651 y_0!5_2!4 -83.86495117883987 y_0!6_2!4 -37.43959450581116 y_0!1_2!5 +74.14672552690715 y_0!2_2!5 +63.68797633389448 y_0!3_2!5 -31.55123174152014 y_0!4_2!5 +34.9135535279913 y_0!5_2!5 +79.87788806664821 y_0!6_2!5 +26.9535404306843 y_0!1_2!6 -76.16149859264252 y_0!2_2!6 +16.3221199421767 y_0!3_2!6 +23.30494551104516 y_0!4_2!6 -60.52681891701859 y_0!5_2!6 +0.49660621711988995 y_0!6_2!6 + lambda_1!6 - mu_1 = 0
 dc_1: x_1!1 + x_1!2 + x_1!3 + x_1!4 + x_1!5 + x_1!6 = 1
 bc_1!1: lambda_1!1 +299.4878125627913 x_1!1 <= 299.4878125627913
 bc_1!2: lambda_1!2 +299.4878125627913 x_1!2 <= 299.4878125627913
 bc_1!3: lambda_1!3 +299.4878125627913 x_1!3 <= 299.4878125627913
 bc_1!4: lambda_1!4 +299.4878125627913 x_1!4 <= 299.4878125627913
 bc_1!5: lambda_1!5 +299.4878125627913 x_1!5 <= 299.4878125627913
 bc_1!6: lambda_1!6 +299.4878125627913 x_1!6 <= 299.4878125627913
 sum_1!1: y_0!1_2!1 - x_0!1 - x_2!1 >= -1
 idk_1!1!0: y_0!1_2!1 - x_0!1 <= 0
 idk_1!1!2: y_0!1_2!1 - x_2!1 <= 0
 sum_1!2: y_0!2_2!1 - x_0!2 - x_2!1 >= -1
 idk_1!2!0: y_0!2_2!1 - x_0!2 <= 0
 idk_1!2!2: y_0!2_2!1 - x_2!1 <= 0
 sum_1!3: y_0!3_2!1 - x_0!3 - x_2!1 >= -1
 idk_1!3!0: y_0!3_2!1 - x_0!3 <= 0
 idk_1!3!2: y_0!3_2!1 - x_2!1 <= 0
 sum_1!4: y_0!4_2!1 - x_0!4 - x_2!1 >= -1
 idk_1!4!0: y_0!4_2!1 - x_0!4 <= 0
 idk_1!4!2: y_0!4_2!1 - x_2!1 <= 0
 sum_1!5: y_0!5_2!1 - x_0!5 - x_2!1 >= -1
 idk_1!5!0: y_0!5_2!1 - x_0!5 <= 0
 idk_1!5!2: y_0!5_2!1 - x_2!1 <= 0
 sum_1!6: y_0!6_2!1 - x_0!6 - x_2!1 >= -1
 idk_1!6!0: y_0!6_2!1 - x_0!6 <= 0
 idk_1!6!2: y_0!6_2!1 - x_2!1 <= 0
 sum_1!7: y_0!1_2!2 - x_0!1 - x_2!2 >= -1
 idk_1!7!0: y_0!1_2!2 - x_0!1 <= 0
 idk_1!7!2: y_0!1_2!2 - x_2!2 <= 0
 sum_1!8: y_0!2_2!2 - x_0!2 - x_2!2 >= -1
 idk_1!8!0: y_0!2_2!2 - x_0!2 <= 0
 idk_1!8!2: y_0!2_2!2 - x_2!2 <= 0
 sum_1!9: y_0!3_2!2 - x_0!3 - x_2!2 >= -1
 idk_1!9!0: y_0!3_2!2 - x_0!3 <= 0
 idk_1!9!2: y_0!3_2!2 - x_2!2 <= 0
 sum_1!10: y_0!4_2!2 - x_0!4 - x_2!2 >= -1
 idk_1!10!0: y_0!4_2!2 - x_0!4 <= 0
 idk_1!10!2: y_0!4_2!2 - x_2!2 <= 0
 sum_1!11: y_0!5_2!2 - x_0!5 - x_2!2 >= -1
 idk_1!11!0: y_0!5_2!2 - x_0!5 <= 0
 idk_1!11!2: y_0!5_2!2 - x_2!2 <= 0
 sum_1!12: y_0!6_2!2 - x_0!6 - x_2!2 >= -1
 idk_1!12!0: y_0!6_2!2 - x_0!6 <= 0
 idk_1!12!2: y_0!6_2!2 - x_2!2 <= 0
 sum_1!13: y_0!1_2!3 - x_0!1 - x_2!3 >= -1
 idk_1!13!0: y_0!1_2!3 - x_0!1 <= 0
 idk_1!13!2: y_0!1_2!3 - x_2!3 <= 0
 sum_1!14: y_0!2_2!3 - x_0!2 - x_2!3 >= -1
 idk_1!14!0: y_0!2_2!3 - x_0!2 <= 0
 idk_1!14!2: y_0!2_2!3 - x_2!3 <= 0
 sum_1!15: y_0!3_2!3 - x_0!3 - x_2!3 >= -1
 idk_1!15!0: y_0!3_2!3 - x_0!3 <= 0
 idk_1!15!2: y_0!3_2!3 - x_2!3 <= 0
 sum_1!16: y_0!4_2!3 - x_0!4 - x_2!3 >= -1
 idk_1!16!0: y_0!4_2!3 - x_0!4 <= 0
 idk_1!16!2: y_0!4_2!3 - x_2!3 <= 0
 sum_1!17: y_0!5_2!3 - x_0!5 - x_2!3 >= -1
 idk_1!17!0: y_0!5_2!3 - x_0!5 <= 0
 idk_1!17!2: y_0!5_2!3 - x_2!3 <= 0
 sum_1!18: y_0!6_2!3 - x_0!6 - x_2!3 >= -1
 idk_1!18!0: y_0!6_2!3 - x_0!6 <= 0
 idk_1!18!2: y_0!6_2!3 - x_2!3 <= 0
 sum_1!19: y_0!1_2!4 - x_0!1 - x_2!4 >= -1
 idk_1!19!0: y_0!1_2!4 - x_0!1 <= 0
 idk_1!19!2: y_0!1_2!4 - x_2!4 <= 0
 sum_1!20: y_0!2_2!4 - x_0!2 - x_2!4 >= -1
 idk_1!20!0: y_0!2_2!4 - x_0!2 <= 0
 idk_1!20!2: y_0!2_2!4 - x_2!4 <= 0
 sum_1!21: y_0!3_2!4 - x_0!3 - x_2!4 >= -1
 idk_1!21!0: y_0!3_2!4 - x_0!3 <= 0
 idk_1!21!2: y_0!3_2!4 - x_2!4 <= 0
 sum_1!22: y_0!4_2!4 - x_0!4 - x_2!4 >= -1
 idk_1!22!0: y_0!4_2!4 - x_0!4 <= 0
 idk_1!22!2: y_0!4_2!4 - x_2!4 <= 0
 sum_1!23: y_0!5_2!4 - x_0!5 - x_2!4 >= -1
 idk_1!23!0: y_0!5_2!4 - x_0!5 <= 0
 idk_1!23!2: y_0!5_2!4 - x_2!4 <= 0
 sum_1!24: y_0!6_2!4 - x_0!6 - x_2!4 >= -1
 idk_1!24!0: y_0!6_2!4 - x_0!6 <= 0
 idk_1!24!2: y_0!6_2!4 - x_2!4 <= 0
 sum_1!25: y_0!1_2!5 - x_0!1 - x_2!5 >= -1
 idk_1!25!0: y_0!1_2!5 - x_0!1 <= 0
 idk_1!25!2: y_0!1_2!5 - x_2!5 <= 0
 sum_1!26: y_0!2_2!5 - x_0!2 - x_2!5 >= -1
 idk_1!26!0: y_0!2_2!5 - x_0!2 <= 0
 idk_1!26!2: y_0!2_2!5 - x_2!5 <= 0
 sum_1!27: y_0!3_2!5 - x_0!3 - x_2!5 >= -1
 idk_1!27!0: y_0!3_2!5 - x_0!3 <= 0
 idk_1!27!2: y_0!3_2!5 - x_2!5 <= 0
 sum_1!28: y_0!4_2!5 - x_0!4 - x_2!5 >= -1
 idk_1!28!0: y_0!4_2!5 - x_0!4 <= 0
 idk_1!28!2: y_0!4_2!5 - x_2!5 <= 0
 sum_1!29: y_0!5_2!5 - x_0!5 - x_2!5 >= -1
 idk_1!29!0: y_0!5_2!5 - x_0!5 <= 0
 idk_1!29!2: y_0!5_2!5 - x_2!5 <= 0
 sum_1!30: y_0!6_2!5 - x_0!6 - x_2!5 >= -1
 idk_1!30!0: y_0!6_2!5 - x_0!6 <= 0
 idk_1!30!2: y_0!6_2!5 - x_2!5 <= 0
 sum_1!31: y_0!1_2!6 - x_0!1 - x_2!6 >= -1
 idk_1!31!0: y_0!1_2!6 - x_0!1 <= 0
 idk_1!31!2: y_0!1_2!6 - x_2!6 <= 0
 sum_1!32: y_0!2_2!6 - x_0!2 - x_2!6 >= -1
 idk_1!32!0: y_0!2_2!6 - x_0!2 <= 0
 idk_1!32!2: y_0!2_2!6 - x_2!6 <= 0
 sum_1!33: y_0!3_2!6 - x_0!3 - x_2!6 >= -1
 idk_1!33!0: y_0!3_2!6 - x_0!3 <= 0
 idk_1!33!2: y_0!3_2!6 - x_2!6 <= 0
 sum_1!34: y_0!4_2!6 - x_0!4 - x_2!6 >= -1
 idk_1!34!0: y_0!4_2!6 - x_0!4 <= 0
 idk_1!34!2: y_0!4_2!6 - x_2!6 <= 0
 sum_1!35: y_0!5_2!6 - x_0!5 - x_2!6 >= -1
 idk_1!35!0: y_0!5_2!6 - x_0!5 <= 0
 idk_1!35!2: y_0!5_2!6 - x_2!6 <= 0
 sum_1!36: y_0!6_2!6 - x_0!6 - x_2!6 >= -1
 idk_1!36!0: y_0!6_2!6 - x_0!6 <= 0
 idk_1!36!2: y_0!6_2!6 - x_2!6 <= 0
 epc_2!1: +36.06186863234208 y_0!1_1!1 +24.955538187833554 y_0!2_1!1 +61.886421117181584 y_0!3_1!1 +62.943728401452375 y_0!4_1!1 -92.99592054175474 y_0!5_1!1 +34.5940274472498 y_0!6_1!1 +61.661146242728535 y_0!1_1!2 +77.9405879289973 y_0!2_1!2 +97.0648758993446 y_0!3_1!2 -29.117755202071322 y_0!4_1!2 +32.91120902749273 y_0!5_1!2 -56.66537293494942 y_0!6_1!2 +95.11612222987429 y_0!1_1!3 -83.49219293411896 y_0!2_1!3 -63.68931808706526 y_0!3_1!3 -3.161701418454996 y_0!4_1!3 -21.74572134536892 y_0!5_1!3 +47.505799546493506 y_0!6_1!3 +56.57062997993188 y_0!1_1!4 +88.27664507011798 y_0!2_1!4 +17.59367583931916 y_0!3_1!4 +40.301033285583884 y_0!4_1!4 -5.023219016907703 y_0!5_1!4 -86.01097627493041 y_0!6_1!4 -62.70441330873873 y_0!1_1!5 +34.615206659214635 y_0!2_1!5 +71.26349539857304 y_0!3_1!5 -16.857474065867706 y_0!4_1!5 +69.35638114678173 y_0!5_1!5 +92.07663387353125 y_0!6_1!5 +93.46049331770291 y_0!1_1!6 -56.998289619598964 y_0!2_1!6 +52.341845749806396 y_0!3_1!6 +50.72171153865918 y_0!4_1!6 -68.11215512108244 y_0!5_1!6 +47.42591635709502 y_0!6_1!6 + lambda_2!1 - mu_2 = 0
 epc_2!2: -78.33081760655749 y_0!1_1!1 +79.6789426087148 y_0!2_1!1 -95.23609972059424 y_0!3_1!1 -46.15801936759938 y_0!4_1!1 +32.20190777636688 y_0!5_1!1 +86.17781477910677 y_0!6_1!1 +47.9297308547911 y_0!1_1!2 -21.333344584825184 y_0!2_1!2 +40.83718906257309 y_0!3_1!2 +18.62643889598516 y_0!4_1!2 +99.98286732634185 y_0!5_1!2 +29.629747569550574 y_0!6_1!2 -42.57090260953365 y_0!1_1!3 +44.853413246996695 y_0!2_1!3 +86.65212460927995 y_0!3_1!3 +65.67538310172463 y_0!4_1!3 +46.80533397399873 y_0!5_1!3 -36.28904266745998 y_0!6_1!3 -65.46571471239086 y_0!1_1!4 -88.90449527324553 y_0!2_1!4 -67.20093563477926 y_0!3_1!4 +31.087816771797662 y_0!4_1!4 -15.647325986274652 y_0!5_1!4 -29.72380242476325 y_0!6_1!4 +17.131582024050985 y_0!1_1!5 +47.982208531397276 y_0!2_1!5 +7.68649531056829 y_0!3_1!5 +52.91403366460176 y_0!4_1!5 +81.64551729980704 y_0!5_1!5 +68.63639569763205 y_0!6_1!5 -41.340982698238534 y_0!1_1!6 -73.21385215673119 y_0!2_1!6 +91.8024238665842 y_0!3_1!6 +40.836253575888264 y_0!4_1!6 +13.36172136880458 y_0!5_1!6 -33.86563254939223 y_0!6_1!6 + lambda_2!2 - mu_2 = 0
 epc_2!3: -37.47735830232459 y_0!1_1!1 +88.33060038988188 y_0!2_1!1 +64.83049502112499 y_0!3_1!1 -41.54971918890795 y_0!4_1!1 -15.640634266171261 y_0!5_1!1 -13.07325192226618 y_0!6_1!1 -49.820778284216956 y_0!1_1!2 -29.07537794465209 y_0!2_1!2 -61.337088958425 y_0!3_1!2 +71.170145200011 y_0!4_1!2 +89.034918276622 y_0!5_1!2 -39.94898696718157 y_0!6_1!2 +54.80526145136287 y_0!1_1!3 -62.382278107624046 y_0!2_1!3 -91.29210176361684 y_0!3_1!3 -66.14942633786694 y_0!4_1!3 +80.69905682593367 y_0!5_1!3 +83.56599218458652 y_0!6_1!3 +21.56922795639926 y_0!1_1!4 -54.08944347543023 y_0!2_1!4 +49.759133770983766 y_0!3_1!4 +36.69653612054225 y_0!4_1!4 +3.8971331958795474 y_0!5_1!4 +13.906646057208533 y_0!6_1!4 +33.11896723242282 y_0!1_1!5 -8.546925396770504 y_0!2_1!5 +2.9926926240936353 y_0!3_1!5 +12.505179408258698 y_0!4_1!5 +65.3282938228565 y_0!5_1!5 +72.06594289214067 y_0!6_1!5 +70.65460872983164 y_0!1_1!6 +91.51810116250476 y_0!2_1!6 -75.07776578435204 y_0!3_1!6 +89.99128075253711 y_0!4_1!6 +86.14152894283774 y_0!5_1!6 +14.910011374035463 y_0!6_1!6 + lambda_2!3 - mu_2 = 0
 epc_2!4: -61.83348243057014 y_0!1_1!1 +55.1338135655393 y_0!2_1!1 -9.460164638918457 y_0!3_1!1 +4.733187775006016 y_0!4_1!1 +54.94710527375136 y_0!5_1!1 -64.4263186259266 y_0!6_1!1 +6.9935371793995245 y_0!1_1!2 +6.293182180550232 y_0!2_1!2 -79.81301773574596 y_0!3_1!2 +39.61941166449705 y_0!4_1!2 -32.45782978070271 y_0!5_1!2 -33.1760731641765 y_0!6_1!2 -67.66340009599767 y_0!1_1!3 -83.13947731641278 y_0!2_1!3 +7.351655025943657 y_0!3_1!3 -60.32197148694056 y_0!4_1!3 -57.60125585006934 y_0!5_1!3 +41.49493562822471 y_0!6_1!3 -79.0879740827136 y_0!1_1!4 -10.485582066858413 y_0!2_1!4 -97.3874514917225 y_0!3_1!4 -48.442048131722906 y_0!4_1!4 +2.315080402220687 y_0!5_1!4 -18.8079036762352 y_0!6_1!4 +23.33549765123277 y_0!1_1!5 -28.218993468833858 y_0!2_1!5 +13.014099933348945 y_0!3_1!5 -13.94473659426265 y_0!4_1!5 +39.8262675549075 y_0!5_1!5 -54.33994776644218 y_0!6_1!5 +35.50672491464067 y_0!1_1!6 +34.021726128477724 y_0!2_1!6 +27.5453779261164 y_0!3_1!6 -56.08501768982836 y_0!4_1!6 -19.828720739704536 y_0!5_1!6 +78.36297537973223 y_0!6_1!6 + lambda_2!4 - mu_2 = 0
 epc_2!5: +35.25466303446257 y_0!1_1!1 -98.12696287302462 y_0!2_1!1 +15.02578721583643 y_0!3_1!1 -77.7090411851892 y_0!4_1!1 +29.61056342193794 y_0!5_1!1 -32.58928445887588 y_0!6_1!1 -15.53195131971728 y_0!1_1!2 +82.44307088375277 y_0!2_1!2 +63.110495387463175 y_0!3_1!2 +13.940303500362774 y_0!4_1!2 -26.90582037103333 y_0!5_1!2 -65.91649675761133 y_0!6_1!2 -10.834638676554874 y_0!1_1!3 +89.52860203002027 y_0!2_1!3 -45.51789340007551 y_0!3_1!3 -3.6844062847107892 y_0!4_1!3 +53.73553982705991 y_0!5_1!3 -66.41285493594849 y_0!6_1!3 -57.63447275509328 y_0!1_1!4 +72.8264927594681 y_0!2_1!4 +92.38164429856457 y_0!3_1!4 +96.67461325648881 y_0!4_1!4 +32.91296465076633 y_0!5_1!4 -35.33816772157779 y_0!6_1!4 +54.745421428267946 y_0!1_1!5 +46.80381248318608 y_0!2_1!5 -8.134457107965432 y_0!3_1!5 +16.25486877400668 y_0!4_1!5 -34.60972774527829 y_0!5_1!5 -62.752901160012996 y_0!6_1!5 -0.9237396784444627 y_0!1_1!6 +44.41098547675094 y_0!2_1!6 +10.594842515523212 y_0!3_1!6 +46.185722060072266 y_0!4_1!6 +15.532474835018235 y_0!5_1!6 +32.17501866579019 y_0!6_1!6 + lambda_2!5 - mu_2 = 0
 epc_2!6: +15.107321318116632 y_0!1_1!1 +77.65008335909658 y_0!2_1!1 -15.767460544114243 y_0!3_1!1 -54.51447945028072 y_0!4_1!1 -58.96800188857709 y_0!5_1!1 -63.95046537472224 y_0!6_1!1 -83.67358578896517 y_0!1_1!2 -49.75348339152927 y_0!2_1!2 +2.933850606238991 y_0!3_1!2 +53.1918094214891 y_0!4_1!2 +47.71928407524675 y_0!5_1!2 -29.07603251440709 y_0!6_1!2 -51.08913431402095 y_0!1_1!3 +57.04385690758352 y_0!2_1!3 +78.87620823365927 y_0!3_1!3 -60.99932941595212 y_0!4_1!3 +6.797938108962583 y_0!5_1!3 -74.41270249141827 y_0!6_1!3 +31.854878286066196 y_0!1_1!4 +30.59989538939959 y_0!2_1!4 -62.16979777784941 y_0!3_1!4 -33.026642859037764 y_0!4_1!4 +73.63269613739561 y_0!5_1!4 +87.31463326156197 y_0!6_1!4 -22.992228617200865 y_0!1_1!5 +8.783670022105 y_0!2_1!5 -36.41667799655539 y_0!3_1!5 +52.75585567222109 y_0!4_1!5 -29.932111356617128 y_0!5_1!5 +64.5549443606701 y_0!6_1!5 -14.502927992383093 y_0!1_1!6 +39.559832176595165 y_0!2_1!6 -58.61549201762579 y_0!3_1!6 +74.82693704091383 y_0!4_1!6 -79.17158047715931 y_0!5_1!6 -32.4290176941477 y_0!6_1!6 + lambda_2!6 - mu_2 = 0
 dc_2: x_2!1 + x_2!2 + x_2!3 + x_2!4 + x_2!5 + x_2!6 = 1
 bc_2!1: lambda_2!1 +299.4878125627913 x_2!1 <= 299.4878125627913
 bc_2!2: lambda_2!2 +299.4878125627913 x_2!2 <= 299.4878125627913
 bc_2!3: lambda_2!3 +299.4878125627913 x_2!3 <= 299.4878125627913
 bc_2!4: lambda_2!4 +299.4878125627913 x_2!4 <= 299.4878125627913
 bc_2!5: lambda_2!5 +299.4878125627913 x_2!5 <= 299.4878125627913
 bc_2!6: lambda_2!6 +299.4878125627913 x_2!6 <= 299.4878125627913
 sum_2!1: y_0!1_1!1 - x_0!1 - x_1!1 >= -1
 idk_2!1!0: y_0!1_1!1 - x_0!1 <= 0
 idk_2!1!1: y_0!1_1!1 - x_1!1 <= 0
 sum_2!2: y_0!2_1!1 - x_0!2 - x_1!1 >= -1
 idk_2!2!0: y_0!2_1!1 - x_0!2 <= 0
 idk_2!2!1: y_0!2_1!1 - x_1!1 <= 0
 sum_2!3: y_0!3_1!1 - x_0!3 - x_1!1 >= -1
 idk_2!3!0: y_0!3_1!1 - x_0!3 <= 0
 idk_2!3!1: y_0!3_1!1 - x_1!1 <= 0
 sum_2!4: y_0!4_1!1 - x_0!4 - x_1!1 >= -1
 idk_2!4!0: y_0!4_1!1 - x_0!4 <= 0
 idk_2!4!1: y_0!4_1!1 - x_1!1 <= 0
 sum_2!5: y_0!5_1!1 - x_0!5 - x_1!1 >= -1
 idk_2!5!0: y_0!5_1!1 - x_0!5 <= 0
 idk_2!5!1: y_0!5_1!1 - x_1!1 <= 0
 sum_2!6: y_0!6_1!1 - x_0!6 - x_1!1 >= -1
 idk_2!6!0: y_0!6_1!1 - x_0!6 <= 0
 idk_2!6!1: y_0!6_1!1 - x_1!1 <= 0
 sum_2!7: y_0!1_1!2 - x_0!1 - x_1!2 >= -1
 idk_2!7!0: y_0!1_1!2 - x_0!1 <= 0
 idk_2!7!1: y_0!1_1!2 - x_1!2 <= 0
 sum_2!8: y_0!2_1!2 - x_0!2 - x_1!2 >= -1
 idk_2!8!0: y_0!2_1!2 - x_0!2 <= 0
 idk_2!8!1: y_0!2_1!2 - x_1!2 <= 0
 sum_2!9: y_0!3_1!2 - x_0!3 - x_1!2 >= -1
 idk_2!9!0: y_0!3_1!2 - x_0!3 <= 0
 idk_2!9!1: y_0!3_1!2 - x_1!2 <= 0
 sum_2!10: y_0!4_1!2 - x_0!4 - x_1!2 >= -1
 idk_2!10!0: y_0!4_1!2 - x_0!4 <= 0
 idk_2!10!1: y_0!4_1!2 - x_1!2 <= 0
 sum_2!11: y_0!5_1!2 - x_0!5 - x_1!2 >= -1
 idk_2!11!0: y_0!5_1!2 - x_0!5 <= 0
 idk_2!11!1: y_0!5_1!2 - x_1!2 <= 0
 sum_2!12: y_0!6_1!2 - x_0!6 - x_1!2 >= -1
 idk_2!12!0: y_0!6_1!2 - x_0!6 <= 0
 idk_2!12!1: y_0!6_1!2 - x_1!2 <= 0
 sum_2!13: y_0!1_1!3 - x_0!1 - x_1!3 >= -1
 idk_2!13!0: y_0!1_1!3 - x_0!1 <= 0
 idk_2!13!1: y_0!1_1!3 - x_1!3 <= 0
 sum_2!14: y_0!2_1!3 - x_0!2 - x_1!3 >= -1
 idk_2!14!0: y_0!2_1!3 - x_0!2 <= 0
 idk_2!14!1: y_0!2_1!3 - x_1!3 <= 0
 sum_2!15: y_0!3_1!3 - x_0!3 - x_1!3 >= -1
 idk_2!15!0: y_0!3_1!3 - x_0!3 <= 0
 idk_2!15!1: y_0!3_1!3 - x_1!3 <= 0
 sum_2!16: y_0!4_1!3 - x_0!4 - x_1!3 >= -1
 idk_2!16!0: y_0!4_1!3 - x_0!4 <= 0
 idk_2!16!1: y_0!4_1!3 - x_1!3 <= 0
 sum_2!17: y_0!5_1!3 - x_0!5 - x_1!3 >= -1
 idk_2!17!0: y_0!5_1!3 - x_0!5 <= 0
 idk_2!17!1: y_0!5_1!3 - x_1!3 <= 0
 sum_2!18: y_0!6_1!3 - x_0!6 - x_1!3 >= -1
 idk_2!18!0: y_0!6_1!3 - x_0!6 <= 0
 idk_2!18!1: y_0!6_1!3 - x_1!3 <= 0
 sum_2!19: y_0!1_1!4 - x_0!1 - x_1!4 >= -1
 idk_2!19!0: y_0!1_1!4 - x_0!1 <= 0
 idk_2!19!1: y_0!1_1!4 - x_1!4 <= 0
 sum_2!20: y_0!2_1!4 - x_0!2 - x_1!4 >= -1
 idk_2!20!0: y_0!2_1!4 - x_0!2 <= 0
 idk_2!20!1: y_0!2_1!4 - x_1!4 <= 0
 sum_2!21: y_0!3_1!4 - x_0!3 - x_1!4 >= -1
 idk_2!21!0: y_0!3_1!4 - x_0!3 <= 0
 idk_2!21!1: y_0!3_1!4 - x_1!4 <= 0
 sum_2!22: y_0!4_1!4 - x_0!4 - x_1!4 >= -1
 idk_2!22!0: y_0!4_1!4 - x_0!4 <= 0
 idk_2!22!1: y_0!4_1!4 - x_1!4 <= 0
 sum_2!23: y_0!5_1!4 - x_0!5 - x_1!4 >= -1
 idk_2!23!0: y_0!5_1!4 - x_0!5 <= 0
 idk_2!23!1: y_0!5_1!4 - x_1!4 <= 0
 sum_2!24: y_0!6_1!4 - x_0!6 - x_1!4 >= -1
 idk_2!24!0: y_0!6_1!4 - x_0!6 <= 0
 idk_2!24!1: y_0!6_1!4 - x_1!4 <= 0
 sum_2!25: y_0!1_1!5 - x_0!1 - x_1!5 >= -1
 idk_2!25!0: y_0!1_1!5 - x_0!1 <= 0
 idk_2!25!1: y_0!1_1!5 - x_1!5 <= 0
 sum_2!26: y_0!2_1!5 - x_0!2 - x_1!5 >= -1
 idk_2!26!0: y_0!2_1!5 - x_0!2 <= 0
 idk_2!26!1: y_0!2_1!5 - x_1!5 <= 0
 sum_2!27: y_0!3_1!5 - x_0!3 - x_1!5 >= -1
 idk_2!27!0: y_0!3_1!5 - x_0!3 <= 0
 idk_2!27!1: y_0!3_1!5 - x_1!5 <= 0
 sum_2!28: y_0!4_1!5 - x_0!4 - x_1!5 >= -1
 idk_2!28!0: y_0!4_1!5 - x_0!4 <= 0
 idk_2!28!1: y_0!4_1!5 - x_1!5 <= 0
 sum_2!29: y_0!5_1!5 - x_0!5 - x_1!5 >= -1
 idk_2!29!0: y_0!5_1!5 - x_0!5 <= 0
 idk_2!29!1: y_0!5_1!5 - x_1!5 <= 0
 sum_2!30: y_0!6_1!5 - x_0!6 - x_1!5 >= -1
 idk_2!30!0: y_0!6_1!5 - x_0!6 <= 0
 idk_2!30!1: y_0!6_1!5 - x_1!5 <= 0
 sum_2!31: y_0!1_1!6 - x_0!1 - x_1!6 >= -1
 idk_2!31!0: y_0!1_1!6 - x_0!1 <= 0
 idk_2!31!1: y_0!1_1!6 - x_1!6 <= 0
 sum_2!32: y_0!2_1!6 - x_0!2 - x_1!6 >= -1
 idk_2!32!0: y_0!2_1!6 - x_0!2 <= 0
 idk_2!32!1: y_0!2_1!6 - x_1!6 <= 0
 sum_2!33: y_0!3_1!6 - x_0!3 - x_1!6 >= -1
 idk_2!33!0: y_0!3_1!6 - x_0!3 <= 0
 idk_2!33!1: y_0!3_1!6 - x_1!6 <= 0
 sum_2!34: y_0!4_1!6 - x_0!4 - x_1!6 >= -1
 idk_2!34!0: y_0!4_1!6 - x_0!4 <= 0
 idk_2!34!1: y_0!4_1!6 - x_1!6 <= 0
 sum_2!35: y_0!5_1!6 - x_0!5 - x_1!6 >= -1
 idk_2!35!0: y_0!5_1!6 - x_0!5 <= 0
 idk_2!35!1: y_0!5_1!6 - x_1!6 <= 0
 sum_2!36: y_0!6_1!6 - x_0!6 - x_1!6 >= -1
 idk_2!36!0: y_0!6_1!6 - x_0!6 <= 0
 idk_2!36!1: y_0!6_1!6 - x_1!6 <= 0
Bounds
 mu_0 free
 mu_1 free
 mu_2 free
Binary
 x_0!1 x_0!2 x_0!3 x_0!4 x_0!5 x_0!6 x_1!1 x_1!2 x_1!3 x_1!4 x_1!5 x_1!6 x_2!1 x_2!2 x_2!3 x_2!4 x_2!5 x_2!6
End
